set ENTITIES := c0, c1, c2, c3, c4, c5, c6, c7, c8, c9, c10, c11, c12, c13, c14, c15, c16, c17, c18, c19, 
c20, c21, c22, c23, c24, c25, c26, c27, c28, c29, c30, c31, c32, c33, c34, c35, c36, c37, c38, c39, 
c40, c41, c42, c43, c44, c45, c46, c47, c48, c49, c50, c51, c52, c53, c54, c55, c56, c57, c58, c59, 
c60, c61, c62, c63, c64, c65, c66, c67, c68, c69, c70, c71, c72, c73, c74, c75, c76, c77, c78, c79, 
c80, c81, c82, c83, c84, c85, c86, c87, c88, c89, c90, c91, c92, c93, c94, c95, c96, c97, c98, c99, 
c100, c101, c102, c103, c104, c105, c106, c107, c108, c109, c110, c111, c112, c113, c114, c115, c116, c117, c118, c119, 
c120, c121, c122, c123, c124, c125, c126, c127, c128, c129, c130, c131, c132, c133, c134, c135, c136, c137, c138, c139, 
c140, c141, c142, c143, c144, c145, c146, c147, c148, c149, c150, c151, c152, c153, c154, c155, c156, c157, c158, c159, 
c160, c161, c162, c163, c164, c165, c166, c167, c168, c169, c170, c171, c172, c173, c174, c175, c176, c177, c178, c179, 
c180, c181, c182, c183, c184, c185, c186, c187, c188, c189, c190, c191, c192, c193, c194, c195, c196, c197, c198, c199;


set FACILITIES := f0, f1, f2, f3, f4, f5, f6, f7, f8, f9, f10, f11, f12, f13, f14, f15, f16, f17, f18, f19, 
f20, f21, f22, f23, f24, f25, f26, f27, f28, f29, f30, f31, f32, f33, f34, f35, f36, f37, f38, f39, 
f40, f41, f42, f43, f44, f45, f46, f47, f48, f49, f50, f51, f52, f53, f54, f55, f56, f57, f58, f59, 
f60, f61, f62, f63, f64, f65, f66, f67, f68, f69, f70, f71, f72, f73, f74, f75, f76, f77, f78, f79, 
f80, f81, f82, f83, f84, f85, f86, f87, f88, f89, f90, f91, f92, f93, f94, f95, f96, f97, f98, f99, 
f100, f101, f102, f103, f104, f105, f106, f107, f108, f109, f110, f111, f112, f113, f114, f115, f116, f117, f118, f119, 
f120, f121, f122, f123, f124, f125, f126, f127, f128, f129, f130, f131, f132, f133, f134, f135, f136, f137, f138, f139, 
f140, f141, f142, f143, f144, f145, f146, f147, f148, f149, f150, f151, f152, f153, f154, f155, f156, f157, f158, f159, 
f160, f161, f162, f163, f164, f165, f166, f167, f168, f169, f170, f171, f172, f173, f174, f175, f176, f177, f178, f179, 
f180, f181, f182, f183, f184, f185, f186, f187, f188, f189, f190, f191, f192, f193, f194, f195, f196, f197, f198, f199;

param p := 25;

